p tw 118 129
1 2
2 31
3 14
4 5
5 6
5 10
6 7
7 8
8 9
9 10
10 11
11 12
12 13
13 15
14 23
15 109
16 17
17 18
18 19
19 20
20 21
21 22
23 24
24 25
25 26
26 27
27 28
28 29
29 30
30 32
31 42
31 97
32 33
33 34
34 35
34 36
35 21
36 37
37 38
38 39
38 45
39 40
40 41
41 43
42 53
43 44
44 21
45 46
46 47
47 48
48 49
49 50
50 51
51 52
51 58
52 54
53 64
54 55
55 56
56 57
57 21
58 59
59 60
60 61
61 62
62 63
63 65
64 75
65 66
66 67
67 68
68 69
69 70
70 71
70 72
71 21
72 73
73 74
74 76
75 86
76 77
77 78
78 79
79 80
80 81
81 82
82 83
83 84
84 85
85 87
86 21
87 88
87 19
88 89
89 90
90 91
91 92
91 96
92 93
93 94
94 95
95 103
96 98
97 108
98 99
99 100
99 103
100 101
101 102
102 103
103 104
104 105
105 106
105 19
106 107
107 109
108 3
109 110
110 111
111 112
111 16
112 113
113 114
114 115
114 10
115 116
116 117
117 118
118 4
